<number of tasks>
20

<cycle time>
1000

<order strength>
0,5


<task times>
1 50
2 245
3 22
4 414
5 261
6 143
7 248
8 141
9 125
10 111
11 509
12 460
13 99
14 506
15 429
16 282
17 71
18 178
19 441
20 599

<precedence relations>
1,3
1,4
1,5
1,6
2,3
2,5
2,6
3,7
3,9
4,14
5,14
6,8
6,11
6,13
6,16
6,17
7,10
7,11
7,12
7,14
9,10
9,11
9,13
10,19
11,15
12,16
12,17
12,19
13,18
14,17
15,19
15,20
17,20
18,19

<end>
